w = 30;
n = 28;
measures = [|9, 24,
|14, 14,
|12, 14,
|12, 13,
|9, 17,
|9, 11,
|4, 24,
|9, 8,
|8, 9,
|4, 17,
|12, 5,
|6, 9,
|3, 18,
|3, 16,
|3, 14,
|3, 12,
|4, 8,
|2, 14,
|2, 13,
|8, 3,
|12, 2,
|3, 6,
|6, 3,
|3, 5,
|2, 5,
|1, 6,
|1, 5,
|2, 2,
|];
initial_x = [0, 9, 0, 12, 0, 9, 18, 0, 9, 17, 0, 12, 18, 21, 24, 27, 0, 4, 6, 8, 16, 0, 3, 9, 12, 14, 15, 16];
initial_y = [0, 0, 24, 24, 38, 38, 38, 62, 62, 62, 79, 79, 79, 79, 79, 79, 97, 97, 97, 97, 97, 111, 111, 111, 111, 111, 111, 111];